ShipType={RoRo,LoLo,Bulk,Liquid,Cruise};

nrBerths=5;
berthType =[{RoRo},{Bulk,LoLo},{RoRo},{Bulk},{Cruise}];
berthLength=[100,150,100,100,100];
depth=[800,1100,900,900,700];

nrShips=7;

shipType=[RoRo,RoRo,Bulk,RoRo,Cruise,LoLo,LoLo];
shipLength=[90,90,100,100,100,150,150];
draught = [800,800,800,800,600,1100,1100];
arrival=[0,0,0,100,100,0,100];
departure=[50,100,150,220,250,50,150];

